qbf_easy_train/easy_3534_SAT.qdimacs
p cnf 21 47
a 16 4 7 0
e 1 2 3 5 6 8 9 10 11 12 13 14 15 17 18 19 20 21 0
-2 1 0
-2 -1 0
-4 -2 0
-4 -3 0
2 3 4 0
-5 -6 -7 0
5 6 -7 0
-5 6 7 0
5 -6 7 0
4 7 -8 0
-4 -7 -8 0
4 -7 8 0
-4 7 8 0
10 -11 -12 0
-10 11 -12 0
10 11 12 0
-10 -11 12 0
13 9 0
13 -12 0
-9 12 -13 0
-14 8 0
-14 13 0
-8 -13 14 0
1 11 -15 0
-1 -11 -15 0
1 -11 15 0
-1 11 15 0
17 -2 0
17 16 0
2 -16 -17 0
18 -11 0
18 -6 0
11 6 -18 0
-19 17 0
-19 18 0
-17 -18 19 0
20 15 0
20 -19 0
-15 19 -20 0
21 -14 0
21 -20 0
14 20 -21 0
-9 6 15 0
-18 21 -6 0
10 9 21 14 0
13 -15 20 -19 -21 3 0
21 0
