sat_easy_train/easy_3534_SAT.dimacs
p cnf 147 501
-4 -2 0
-4 -3 0
2 3 4 0
-4 -5 -6 0
4 5 -6 0
-4 5 6 0
4 -5 6 0
-7 -1 0
-7 6 0
1 -6 7 0
-9 4 0
-9 -8 0
-4 8 9 0
-10 9 0
-10 3 0
-9 -3 10 0
11 -7 0
11 10 0
7 -10 -11 0
-14 -12 0
-14 -13 0
12 13 14 0
-15 11 0
-15 14 0
-11 -14 15 0
16 -5 -17 0
-16 5 -17 0
16 5 17 0
-16 -5 17 0
-17 18 0
17 18 0
-19 -18 0
-19 8 0
18 -8 19 0
-20 9 0
-20 -19 0
-9 19 20 0
-21 -20 0
-21 3 0
20 -3 21 0
-23 -22 0
-23 -12 0
22 12 23 0
-24 -21 0
-24 23 0
21 -23 24 0
-25 15 0
-25 -24 0
-15 24 25 0
22 -26 -27 0
-22 26 -27 0
22 26 27 0
-22 -26 27 0
-30 28 0
-30 -29 0
-28 29 30 0
-27 30 -31 0
27 -30 -31 0
-27 -30 31 0
27 30 31 0
-31 32 -33 0
31 -32 -33 0
-31 -32 33 0
31 32 33 0
33 -18 -34 0
-33 18 -34 0
33 18 34 0
-33 -18 34 0
-35 9 0
-35 -16 0
-9 16 35 0
36 34 0
36 35 0
-34 -35 -36 0
37 -4 0
37 31 0
4 -31 -37 0
38 36 0
38 37 0
-36 -37 -38 0
-39 23 0
-39 2 0
-23 -2 39 0
40 17 0
40 39 0
-17 -39 -40 0
41 13 0
41 40 0
-13 -40 -41 0
42 22 0
42 32 0
-22 -32 -42 0
43 -42 0
43 -3 0
42 3 -43 0
44 -43 0
44 -42 0
43 42 -44 0
-2 -44 -45 0
2 44 -45 0
-2 44 45 0
2 -44 45 0
46 -41 0
46 45 0
41 -45 -46 0
-47 -23 -48 0
47 23 -48 0
-47 23 48 0
47 -23 48 0
-49 13 0
-49 -48 0
-13 48 49 0
50 -49 0
50 -28 0
49 28 -50 0
-50 20 -51 0
50 -20 -51 0
-50 -20 51 0
50 20 51 0
46 -51 -52 0
-46 51 -52 0
46 51 52 0
-46 -51 52 0
53 30 0
53 -39 0
-30 39 -53 0
-54 5 0
-54 -8 0
-5 8 54 0
-55 9 0
-55 -54 0
-9 54 55 0
-9 55 -56 0
9 -55 -56 0
-9 -55 56 0
9 55 56 0
53 56 -57 0
-53 -56 -57 0
53 -56 57 0
-53 56 57 0
58 13 0
58 29 0
-13 -29 -58 0
-58 50 -59 0
58 -50 -59 0
-58 -50 59 0
58 50 59 0
-29 -59 -60 0
29 59 -60 0
-29 59 60 0
29 -59 60 0
61 -57 0
61 60 0
57 -60 -61 0
-62 -52 0
-62 -61 0
52 61 62 0
-63 38 0
-63 62 0
-38 -62 63 0
64 25 0
64 63 0
-25 -63 -64 0
65 39 0
65 -47 0
-39 47 -65 0
-66 53 0
-66 28 0
-53 -28 66 0
67 66 0
67 -16 0
-66 16 -67 0
68 -33 0
68 -43 0
33 43 -68 0
-68 -59 -69 0
68 59 -69 0
-68 59 69 0
68 -59 69 0
70 67 0
70 69 0
-67 -69 -70 0
71 -58 0
71 -70 0
58 70 -71 0
72 -54 0
72 -31 0
54 31 -72 0
-72 54 -73 0
72 -54 -73 0
-72 -54 73 0
72 54 73 0
-73 -6 -74 0
73 6 -74 0
-73 6 74 0
73 -6 74 0
71 -74 -75 0
-71 74 -75 0
71 74 75 0
-71 -74 75 0
-76 -6 0
-76 6 0
-77 75 0
-77 -76 0
-75 76 77 0
-65 -77 -78 0
65 77 -78 0
-65 77 78 0
65 -77 78 0
79 17 0
79 73 0
-17 -73 -79 0
78 79 -80 0
-78 -79 -80 0
78 -79 80 0
-78 79 80 0
-81 -45 0
-81 -44 0
45 44 81 0
82 81 0
82 41 0
-81 -41 -82 0
83 82 0
83 -21 0
-82 21 -83 0
84 12 0
84 7 0
-12 -7 -84 0
85 -19 0
85 -84 0
19 84 -85 0
85 -21 -86 0
-85 21 -86 0
85 21 86 0
-85 -21 86 0
87 8 0
87 -45 0
-8 45 -87 0
-86 -87 -88 0
86 87 -88 0
-86 87 88 0
86 -87 88 0
-89 83 0
-89 88 0
-83 -88 89 0
-1 35 -90 0
1 -35 -90 0
-1 -35 90 0
1 35 90 0
90 -27 -91 0
-90 27 -91 0
90 27 91 0
-90 -27 91 0
-92 28 0
-92 -5 0
-28 5 92 0
28 -32 -93 0
-28 32 -93 0
28 32 93 0
-28 -32 93 0
-94 49 0
-94 2 0
-49 -2 94 0
-95 93 0
-95 -94 0
-93 94 95 0
-42 90 -96 0
42 -90 -96 0
-42 -90 96 0
42 90 96 0
-97 -8 0
-97 -96 0
8 96 97 0
-98 -33 0
-98 31 0
33 -31 98 0
-99 42 0
-99 -54 0
-42 54 99 0
-100 99 0
-100 58 0
-99 -58 100 0
101 98 0
101 -100 0
-98 100 -101 0
47 -101 -102 0
-47 101 -102 0
47 101 102 0
-47 -101 102 0
-97 102 -103 0
97 -102 -103 0
-97 -102 103 0
97 102 103 0
105 104 0
105 6 0
-104 -6 -105 0
22 -29 -106 0
-22 29 -106 0
22 29 106 0
-22 -29 106 0
107 105 0
107 -106 0
-105 106 -107 0
108 -103 0
108 107 0
103 -107 -108 0
95 -108 -109 0
-95 108 -109 0
95 108 109 0
-95 -108 109 0
92 109 -110 0
-92 -109 -110 0
92 -109 110 0
-92 109 110 0
111 -81 0
111 59 0
81 -59 -111 0
112 -58 0
112 48 0
58 -48 -112 0
113 111 0
113 -112 0
-111 112 -113 0
-114 3 0
-114 31 0
-3 -31 114 0
-35 114 -115 0
35 -114 -115 0
-35 -114 115 0
35 114 115 0
-116 113 0
-116 -115 0
-113 115 116 0
110 116 -117 0
-110 -116 -117 0
110 -116 117 0
-110 116 117 0
91 -117 -118 0
-91 117 -118 0
91 117 118 0
-91 -117 118 0
119 -45 0
119 53 0
45 -53 -119 0
120 50 0
120 -49 0
-50 49 -120 0
121 42 0
121 7 0
-42 -7 -121 0
-99 22 -122 0
99 -22 -122 0
-99 -22 122 0
99 22 122 0
-123 121 0
-123 122 0
-121 -122 123 0
-124 -120 0
-124 -123 0
120 123 124 0
81 -85 -125 0
-81 85 -125 0
81 85 125 0
-81 -85 125 0
-126 124 0
-126 125 0
-124 -125 126 0
127 -119 0
127 126 0
119 -126 -127 0
-98 -72 -128 0
98 72 -128 0
-98 72 128 0
98 -72 128 0
-129 -127 0
-129 128 0
127 -128 129 0
130 122 0
130 73 0
-122 -73 -130 0
131 47 0
131 70 0
-47 -70 -131 0
-132 18 0
-132 -54 0
-18 54 132 0
-133 131 0
-133 -132 0
-131 132 133 0
130 133 -134 0
-130 -133 -134 0
130 -133 134 0
-130 133 134 0
-135 45 0
-135 -81 0
-45 81 135 0
135 122 -136 0
-135 -122 -136 0
135 -122 136 0
-135 122 136 0
137 -5 -138 0
-137 5 -138 0
137 5 138 0
-137 -5 138 0
-139 -66 0
-139 -35 0
66 35 139 0
138 -139 -140 0
-138 139 -140 0
138 139 140 0
-138 -139 140 0
-141 -136 0
-141 -140 0
136 140 141 0
142 134 0
142 141 0
-134 -141 -142 0
-143 -129 0
-143 -142 0
129 142 143 0
-118 -143 -144 0
118 143 -144 0
-118 143 144 0
118 -143 144 0
-89 -144 -145 0
89 144 -145 0
-89 144 145 0
89 -144 145 0
-80 -145 -146 0
80 145 -146 0
-80 145 146 0
80 -145 146 0
-147 64 0
-147 -146 0
-64 146 147 0
9 63 -33 -67 95 0
-103 19 -147 26 124 -126 0
-136 -31 49 2 110 0
83 73 52 -16 -80 85 0
-117 32 136 -138 0
-147 64 -137 -120 -143 0
-109 -105 0
-64 -108 82 0
51 124 -6 -18 133 0
-63 -126 49 -68 93 0
88 132 -101 -2 0
-37 -133 0
-141 -98 59 15 78 -13 0
-101 139 34 57 -66 -33 0
12 135 -118 61 -140 0
-32 25 71 109 0
50 11 -133 0
87 105 -21 0
31 -140 -4 36 142 -47 0
-120 -127 53 122 146 0
114 76 124 0
122 125 0
71 -28 -20 -4 145 62 0
-89 -6 -126 64 132 0
102 49 28 0
-101 102 -128 -49 87 -94 0
-82 113 -99 0
46 130 71 138 27 0
132 -87 0
22 92 0
135 91 131 0
82 111 0
-115 -4 0
-84 -89 -93 99 12 0
-84 -10 0
67 73 9 -130 20 0
121 -87 0
135 -126 143 0
108 64 -146 -35 -30 0
-19 63 96 -81 -13 26 0
25 -133 130 0
-19 59 69 22 26 -91 0
42 17 -128 44 0
-96 -3 132 0
114 -73 68 60 0
36 85 9 0
98 40 -131 0
-89 -108 134 122 -131 0
-57 122 -49 144 0
12 -133 -55 -131 -84 0
25 -13 -23 0
-23 0
-106 -54 -2 0
-14 -21 -38 -28 0
117 75 0
-55 -113 0
-25 37 51 -113 -23 0
30 57 0
116 -9 0
130 -41 -141 62 0
120 -55 -52 0
-101 -75 0
33 -143 -24 -66 0
-147 -20 0
7 -61 0
147 0
